outputs/case_132.model.txt
agency_name_notified = False
collection_purpose_notified = False
data_category_notified = False
data_usage_period_region_object_method_notified = False
rights_and_methods_notified = False
impact_of_not_providing_notified = False
restrict_business_scope = False
exempt_by_law = False
collection_for_statutory_duties = False
notification_hinders_statutory_duties = False
notification_hinders_public_interest = False
subject_already_aware = False
non_profit_collection = False
no_adverse_effect = False
other_necessary_measures = False
dismiss_or_suspend_director_or_supervisor = False
non_public_agency_has_personal_data = True
central_authority_designated_plan = False
dismiss_manager_or_staff = False
violate_article_10_to_13 = False
violate_article_8_or_9 = False
violate_article_20_2_or_3 = False
impede_sound_operation = False
violate_163_5_applied = False
agent_penalty_measures = False
safety_plan_designated = False
safety_measures_27_1 = True
violation_167_3 = False
violation_167_2 = False
safety_plan_27_2_defined = True
violate_163_7 = False
safety_measures_required = True
internal_control_executed = True
audit_system_executed = True
notice_exempt = False
internal_control_established = True
violate_law = False
audit_system_established = True
penalty_167_3 = False
violate_163_4_financial_or_business_management = False
agent_violation_penalty = False
notice_compliance = False
penalty_48_major = False
solicitation_handling_system_executed = True
penalty_167_2 = False
notice_required = False
violation_48_3 = False
penalty = False
violate_165_1 = False
violation_48_4 = False
solicitation_handling_system_established = True
penalty_48_minor = False
violation_48_1 = False
violation_48_2 = False